11
-1 16 24 5 72 19 54 19 62 16 54
53 -1 51 7 30 18 70 48 10 85 80
78 54 -1 1 15 33 94 8 99 27 79
23 8 11 -1 91 66 69 87 72 78 86
13 36 46 65 -1 29 28 61 20 86 67
12 69 92 67 77 -1 78 41 65 78 45
61 26 85 14 40 89 -1 25 1 67 19
79 12 30 87 44 43 42 -1 8 4 40
6 4 28 12 99 48 13 74 -1 9 70
97 10 55 27 63 28 73 84 57 -1 15
85 76 42 51 3 79 2 82 28 95 -1
